
Gurobi 10.0.1 (linux64) logging started Sun Nov 26 15:37:23 2023

Set parameter LogFile to value "ArtificialInstance/ExperimentV2/S3T5K3/BaRo/gurobi1.txt"
Gurobi Optimizer version 10.0.1 build v10.0.1rc0 (linux64)

CPU model: AMD EPYC 7H12 64-Core Processor, instruction set [SSE2|AVX|AVX2]
Thread count: 128 physical cores, 128 logical processors, using up to 32 threads

Academic license 656792 - for non-commercial use only - registered to b.___@student.vu.nl
Optimize a model with 5283 rows, 8001 columns and 27843 nonzeros
Model fingerprint: 0xf4445fee
Variable types: 1 continuous, 8000 integer (8000 binary)
Coefficient statistics:
  Matrix range     [1e+00, 4e+01]
  Objective range  [1e+00, 2e+01]
  Bounds range     [1e+00, 1e+00]
  RHS range        [1e+00, 1e+00]
Presolve time: 0.04s
Presolved: 5283 rows, 8001 columns, 27843 nonzeros
Variable types: 1 continuous, 8000 integer (8000 binary)
Found heuristic solution: objective 339.4613102

Root relaxation: objective 5.382560e+01, 6077 iterations, 0.39 seconds (0.33 work units)

    Nodes    |    Current Node    |     Objective Bounds      |     Work
 Expl Unexpl |  Obj  Depth IntInf | Incumbent    BestBd   Gap | It/Node Time

     0     0   53.82560    0 1248  339.46131   53.82560  84.1%     -    0s
H    0     0                     105.5439583   53.82560  49.0%     -    0s
     0     0   63.06811    0 1754  105.54396   63.06811  40.2%     -    1s
H    0     0                     102.7907514   68.94425  32.9%     -    1s
     0     0   68.94425    0 1694  102.79075   68.94425  32.9%     -    1s
     0     0   68.98651    0 1704  102.79075   68.98651  32.9%     -    1s
     0     0   68.98651    0 1709  102.79075   68.98651  32.9%     -    1s
H    0     0                      96.9041386   71.45174  26.3%     -    2s
H    0     0                      96.1931745   71.45174  25.7%     -    2s
     0     0   71.45174    0 1741   96.19317   71.45174  25.7%     -    2s
H    0     0                      92.6929362   71.45174  22.9%     -    2s
     0     0   71.54282    0 1638   92.69294   71.54282  22.8%     -    2s
     0     0   71.54282    0 1637   92.69294   71.54282  22.8%     -    2s
     0     0   71.72835    0 1789   92.69294   71.72835  22.6%     -    2s
     0     0   71.81011    0 1776   92.69294   71.81011  22.5%     -    2s
     0     0   71.81011    0 1776   92.69294   71.81011  22.5%     -    2s
     0     0   72.22947    0 1904   92.69294   72.22947  22.1%     -    3s
     0     0   72.25105    0 1776   92.69294   72.25105  22.1%     -    3s
     0     0   72.25172    0 1832   92.69294   72.25172  22.1%     -    3s
H    0     0                      91.4672708   72.63482  20.6%     -    3s
     0     0   72.63482    0 1711   91.46727   72.63482  20.6%     -    3s
     0     0   72.80623    0 1779   91.46727   72.80623  20.4%     -    3s
     0     0   72.81399    0 1717   91.46727   72.81399  20.4%     -    3s
     0     0   72.81399    0 1726   91.46727   72.81399  20.4%     -    3s
     0     0   73.16586    0 1797   91.46727   73.16586  20.0%     -    4s
     0     0   73.25721    0 1720   91.46727   73.25721  19.9%     -    4s
     0     0   73.28544    0 1679   91.46727   73.28544  19.9%     -    4s
     0     0   73.28934    0 1743   91.46727   73.28934  19.9%     -    4s
     0     0   73.36979    0 1604   91.46727   73.36979  19.8%     -    4s
     0     0   73.46498    0 1687   91.46727   73.46498  19.7%     -    4s
     0     0   73.47225    0 1774   91.46727   73.47225  19.7%     -    4s
     0     0   73.60705    0 1714   91.46727   73.60705  19.5%     -    4s
H    0     0                      91.0123793   73.60705  19.1%     -    5s
     0     0   73.61121    0 1728   91.01238   73.61121  19.1%     -    5s
     0     0   73.62766    0 1755   91.01238   73.62766  19.1%     -    5s
     0     0   73.62936    0 1751   91.01238   73.62936  19.1%     -    5s
     0     0   73.62937    0 1728   91.01238   73.62937  19.1%     -    5s
     0     0   73.62937    0 1559   91.01238   73.62937  19.1%     -    5s
     0     2   73.62937    0 1559   91.01238   73.62937  19.1%     -    6s
H   34    62                      90.7786270   74.56189  17.9%  1414    7s
H   39    62                      90.0981428   74.56189  17.2%  1351    7s
   525   387   81.69957   12 1313   90.09814   75.04476  16.7%   618   10s
H  807   500                      89.8071267   75.04476  16.4%   515   11s
H  808   500                      87.8289090   75.04476  14.6%   516   11s
H  836   500                      87.7615726   75.04476  14.5%   511   11s
H  970   514                      87.3783549   75.04476  14.1%   481   11s
H 2031   722                      87.1059277   77.51355  11.0%   406   14s
  2098   722   85.75030   10 1329   87.10593   77.51355  11.0%   404   15s

Cutting planes:
  Gomory: 8
  Zero half: 590
  RLT: 294

Explored 5421 nodes (1745674 simplex iterations) in 19.51 seconds (23.72 work units)
Thread count was 32 (of 128 available processors)

Solution count 10: 87.1059 87.3784 87.7616 ... 92.6929

Optimal solution found (tolerance 1.00e-04)
Best objective 8.710592771568e+01, best bound 8.710592771568e+01, gap 0.0000%
